c Random generated cnf formula, satisfiable: false
p cnf 10 50
-10 -1 6 0
-10 -2 1 0
-9 10 1 0
10 -4 -2 0
-8 -6 5 0
9 5 7 0
-5 8 6 0
-3 -6 4 0
-10 9 -6 0
3 -7 9 0
-8 10 -5 0
-4 7 -5 0
6 -4 7 0
-8 -5 4 0
-7 4 10 0
7 -9 2 0
-10 7 8 0
-5 8 3 0
6 -8 4 0
2 4 8 0
2 -1 -5 0
3 -7 6 0
7 -3 -5 0
-5 1 -10 0
2 -7 1 0
-5 10 -8 0
-1 5 -2 0
-10 -8 3 0
7 1 -2 0
-7 -9 1 0
3 2 -8 0
-8 1 7 0
1 7 8 0
8 5 10 0
-8 -2 5 0
-2 5 -8 0
-6 2 -7 0
-3 -7 2 0
-3 10 -7 0
-6 -1 -10 0
-5 10 -3 0
9 -10 -4 0
-3 -4 6 0
10 6 9 0
-2 5 -1 0
-6 8 -3 0
-6 5 -2 0
9 3 -7 0
-5 -4 10 0
-7 10 6 0
